job_count = 20 ;
duration = [|8, 15, 9|27, 4, 6|15, 13, 4|15, 3, 5|18, 16, 1|16, 13, 7|7, 17, 6|18, 11, 8|4, 15, 6|7, 17, 7|19, 3, 4|4, 3, 2|17, 3, 7|17, 8, 6|9, 12, 5|11, 11, 6|28, 8, 3|20, 14, 6|15, 19, 4|14, 9, 2|] ;
machine_count = 3 ;
cost = [|19, 21, 43|16, 32, 51|10, 34, 38|14, 22, 52|10, 34, 47|16, 28, 40|19, 38, 31|15, 38, 37|10, 26, 53|17, 24, 31|17, 37, 57|19, 26, 30|19, 28, 47|17, 35, 57|14, 37, 57|17, 29, 40|12, 21, 59|16, 21, 57|19, 33, 34|10, 21, 57|] ;
deadline = [44, 44, 44, 44, 44, 44, 44, 44, 44, 44, 44, 44, 44, 44, 44, 44, 44, 44, 44, 44] ;
release = [0, 0, 0, 0, 0, 0, 0, 0, 0, 0, 0, 0, 0, 0, 0, 0, 0, 0, 0, 0] ;
resource = [|8, 8, 8|1, 1, 1|1, 1, 1|3, 3, 3|8, 8, 8|6, 6, 6|5, 5, 5|5, 5, 5|3, 3, 3|2, 2, 2|9, 9, 9|1, 1, 1|2, 2, 2|5, 5, 5|3, 3, 3|8, 8, 8|2, 2, 2|5, 5, 5|2, 2, 2|5, 5, 5|] ;
capacities = [10, 10, 10] ;
